&bands
 prefix = 'SrTiO3',
 outdir = './outdir/',
 filband = 'SrTiO3.bands.dat',
/
