&input
 fildyn = 'SrTiO3.dyn',
 flfrc  = 'SrTiO3.fc',
/

